
Gurobi 7.0.2 (linux64) logging started Mon Jun 12 13:36:44 2017

Changed value of parameter logfile to result/NEIS-20170612T0949/scenario_100000PVS30PVWE10var-cost0050.log
   Prev: gurobi.log  Default: 
Optimize a model with 1059933 rows, 937229 columns and 3979188 nonzeros
Coefficient statistics:
  Matrix range     [8e-04, 1e+05]
  Objective range  [1e+00, 1e+00]
  Bounds range     [0e+00, 0e+00]
  RHS range        [3e-03, 1e+05]

Concurrent LP optimizer: primal simplex, dual simplex, and barrier
Showing barrier log only...

Presolve removed 594694 rows and 643281 columns
Presolve time: 2.68s
Presolved: 465239 rows, 293948 columns, 1347043 nonzeros

Ordering time: 0.41s

Barrier statistics:
 Dense cols : 21
 AA' NZ     : 1.881e+06
 Factor NZ  : 6.959e+06 (roughly 400 MBytes of memory)
 Factor Ops : 1.640e+08 (less than 1 second per iteration)
 Threads    : 22

                  Objective                Residual
Iter       Primal          Dual         Primal    Dual     Compl     Time
   0   3.86494276e+11 -2.66568264e+11  9.53e+02 6.93e+03  2.20e+07     4s
   1   3.06050234e+11 -9.70120330e+10  7.05e+02 1.33e+04  7.03e+06     4s
   2   2.98801790e+11 -6.88753210e+10  6.91e+02 8.97e+03  5.68e+06     5s
   3   2.08237753e+11 -1.16889098e+11  4.79e+02 1.94e+03  5.33e+06     6s
   4   3.84621273e+10 -1.14244225e+11  6.30e+01 1.65e+02  8.44e+05     6s
   5   3.99851196e+09 -5.91948212e+10  5.17e+00 3.15e+00  1.26e+05     7s
   6   5.24109195e+08 -1.61176733e+10  3.20e-01 8.54e-06  2.42e+04     7s
   7   2.51041894e+08 -2.38505786e+09  4.76e-02 6.62e-07  3.68e+03     7s
   8   1.40381546e+08 -1.01890697e+09  9.66e-03 4.53e-07  1.61e+03     8s
   9   8.71904876e+07 -1.63395735e+08  8.36e-04 1.39e-07  3.46e+02     9s
  10   8.44532287e+07 -2.11487896e+07  7.79e-04 3.05e-08  1.46e+02     9s
  11   6.41062972e+07 -1.57745791e+07  5.50e-04 1.92e-08  1.10e+02    10s
  12   4.85337063e+07 -1.23833957e+07  3.54e-04 2.04e-08  8.41e+01    10s
  13   4.34001429e+07  2.22016526e+06  2.97e-04 1.31e-08  5.69e+01    10s
  14   2.81737465e+07  9.67058145e+06  1.41e-04 2.49e-09  2.56e+01    11s
  15   2.18925386e+07  1.08164530e+07  8.46e-05 1.22e-09  1.53e+01    11s
  16   2.05125830e+07  1.20885082e+07  7.13e-05 1.10e-09  1.16e+01    12s
  17   1.85157379e+07  1.25913356e+07  5.15e-05 5.59e-09  8.18e+00    13s
  18   1.75439638e+07  1.29802153e+07  4.17e-05 7.33e-09  6.30e+00    13s
  19   1.65562985e+07  1.30776398e+07  3.17e-05 6.29e-09  4.80e+00    13s
  20   1.60137299e+07  1.31569431e+07  2.60e-05 5.53e-09  3.95e+00    14s
  21   1.56690794e+07  1.32487725e+07  2.22e-05 6.23e-09  3.34e+00    14s
  22   1.52513374e+07  1.33445336e+07  1.78e-05 1.18e-08  2.63e+00    15s
  23   1.49488200e+07  1.33891842e+07  1.45e-05 1.48e-08  2.15e+00    15s
  24   1.47300769e+07  1.34580340e+07  1.22e-05 1.55e-08  1.76e+00    16s
  25   1.42537024e+07  1.35047785e+07  7.09e-06 1.59e-08  1.03e+00    16s
  26   1.41459508e+07  1.35448303e+07  5.86e-06 1.29e-08  8.30e-01    17s
  27   1.40280993e+07  1.35562438e+07  4.53e-06 1.55e-08  6.52e-01    17s
  28   1.39562192e+07  1.35691125e+07  3.72e-06 1.08e-08  5.35e-01    18s
  29   1.39061805e+07  1.35746475e+07  3.16e-06 1.17e-08  4.58e-01    18s
  30   1.38683901e+07  1.35829207e+07  2.75e-06 1.11e-08  3.94e-01    19s
  31   1.38227413e+07  1.35878753e+07  2.24e-06 1.47e-08  3.24e-01    19s
  32   1.37895591e+07  1.35920776e+07  1.88e-06 9.14e-09  2.73e-01    20s
  33   1.37301411e+07  1.36005040e+07  1.25e-06 9.84e-09  1.79e-01    20s
  34   1.37071012e+07  1.36047802e+07  9.95e-07 7.10e-09  1.41e-01    21s
  35   1.36904178e+07  1.36072873e+07  8.06e-07 1.69e-09  1.15e-01    21s
  36   1.36785047e+07  1.36089589e+07  6.72e-07 1.28e-09  9.60e-02    22s
  37   1.36696064e+07  1.36098301e+07  5.72e-07 1.38e-10  8.25e-02    22s
  38   1.36599707e+07  1.36126211e+07  4.68e-07 4.37e-10  6.54e-02    23s
  39   1.36559269e+07  1.36132649e+07  4.24e-07 2.91e-09  5.89e-02    23s
  40   1.36436001e+07  1.36137351e+07  2.95e-07 5.30e-09  4.12e-02    23s
  41   1.36395007e+07  1.36143169e+07  2.51e-07 2.33e-09  3.48e-02    24s
  42   1.36326237e+07  1.36152100e+07  1.74e-07 6.64e-09  2.40e-02    25s
  43   1.36306097e+07  1.36157356e+07  1.50e-07 7.22e-09  2.05e-02    25s
  44   1.36289330e+07  1.36158999e+07  1.31e-07 7.51e-09  1.80e-02    26s
  45   1.36266992e+07  1.36160447e+07  1.05e-07 7.86e-09  1.47e-02    26s
  46   1.36256405e+07  1.36163478e+07  9.29e-08 1.86e-09  1.28e-02    27s
  47   1.36254521e+07  1.36164255e+07  9.08e-08 4.66e-10  1.25e-02    27s
  48   1.36245459e+07  1.36165198e+07  8.12e-08 5.17e-10  1.11e-02    28s
  49   1.36227252e+07  1.36167887e+07  6.08e-08 2.21e-09  8.20e-03    28s
  50   1.36224618e+07  1.36168158e+07  5.79e-08 8.38e-09  7.80e-03    29s
  51   1.36220709e+07  1.36168637e+07  5.34e-08 9.39e-10  7.19e-03    29s
  52   1.36217993e+07  1.36169091e+07  5.02e-08 7.42e-10  6.75e-03    30s
  53   1.36215905e+07  1.36169497e+07  4.79e-08 1.08e-08  6.41e-03    30s
  54   1.36214526e+07  1.36169777e+07  4.64e-08 6.55e-10  6.18e-03    31s
  55   1.36208469e+07  1.36170084e+07  3.96e-08 1.10e-08  5.30e-03    31s
  56   1.36207308e+07  1.36170195e+07  3.83e-08 1.26e-08  5.13e-03    32s
  57   1.36203065e+07  1.36170420e+07  3.37e-08 2.00e-08  4.51e-03    32s
  58   1.36200883e+07  1.36170691e+07  3.11e-08 2.10e-08  4.17e-03    33s
  59   1.36198873e+07  1.36170824e+07  2.89e-08 1.82e-08  3.87e-03    33s
  60   1.36197530e+07  1.36171133e+07  2.74e-08 3.11e-08  3.65e-03    34s
  61   1.36195082e+07  1.36171304e+07  2.45e-08 2.99e-08  3.28e-03    34s
  62   1.36190263e+07  1.36171550e+07  1.92e-08 2.04e-08  2.58e-03    35s
  63   1.36189595e+07  1.36171610e+07  1.85e-08 2.61e-08  2.48e-03    35s
  64   1.36188733e+07  1.36171792e+07  1.75e-08 2.88e-08  2.34e-03    36s
  65   1.36185770e+07  1.36171914e+07  1.44e-08 2.39e-08  1.91e-03    36s
  66   1.36185218e+07  1.36172140e+07  1.38e-08 2.81e-08  1.81e-03    37s
  67   1.36183483e+07  1.36172278e+07  1.18e-08 1.72e-08  1.55e-03    37s
  68   1.36183021e+07  1.36172381e+07  1.13e-08 1.44e-08  1.47e-03    38s
  69   1.36182784e+07  1.36172439e+07  1.10e-08 7.92e-09  1.43e-03    38s
  70   1.36182578e+07  1.36172455e+07  1.07e-08 9.05e-09  1.40e-03    38s
  71   1.36182168e+07  1.36172527e+07  1.03e-08 1.98e-08  1.33e-03    39s
  72   1.36181149e+07  1.36172728e+07  9.10e-09 2.97e-08  1.16e-03    40s
  73   1.36179483e+07  1.36172833e+07  7.19e-09 2.09e-08  9.18e-04    40s
  74   1.36178518e+07  1.36172912e+07  6.16e-09 1.33e-08  7.74e-04    41s
  75   1.36177512e+07  1.36172938e+07  5.00e-09 1.05e-08  6.32e-04    42s
  76   1.36177046e+07  1.36172987e+07  4.44e-09 1.15e-08  5.60e-04    42s
  77   1.36176685e+07  1.36173030e+07  4.05e-09 6.46e-09  5.05e-04    43s
  78   1.36176343e+07  1.36173051e+07  3.64e-09 7.74e-09  4.55e-04    44s
  79   1.36175863e+07  1.36173068e+07  3.12e-09 1.58e-08  3.86e-04    45s
  80   1.36175817e+07  1.36173076e+07  3.07e-09 1.58e-08  3.78e-04    45s
  81   1.36175287e+07  1.36173102e+07  2.47e-09 1.12e-08  3.02e-04    46s
  82   1.36175218e+07  1.36173107e+07  2.39e-09 9.02e-09  2.92e-04    47s
  83   1.36174878e+07  1.36173119e+07  2.00e-09 8.44e-09  2.43e-04    48s
  84   1.36174030e+07  1.36173134e+07  1.44e-09 6.52e-09  1.24e-04    49s
  85   1.36173621e+07  1.36173174e+07  8.21e-07 1.05e-07  6.17e-05    50s
  86   1.36173431e+07  1.36173197e+07  8.16e-07 3.28e-07  3.23e-05    50s
  87   1.36173412e+07  1.36173199e+07  1.54e-06 2.40e-07  2.93e-05    51s
  88   1.36173412e+07  1.36173199e+07  3.04e-06 2.40e-07  2.93e-05    51s
  89   1.36173412e+07  1.36173199e+07  3.04e-06 2.40e-07  2.93e-05    52s
  90   1.36173411e+07  1.36173199e+07  3.07e-06 6.35e-07  2.93e-05    53s
  91   1.36173411e+07  1.36173199e+07  3.23e-06 9.90e-10  2.92e-05    54s
  92   6.63667652e+11 -2.66568264e+11  2.34e+03 6.93e+03  5.31e+07    55s
  93   4.94196846e+11 -3.67724027e+11  1.53e+03 1.63e+03  1.45e+07    57s
  94   5.96180550e+10 -1.56457817e+11  8.18e+00 2.38e+01  3.62e+05    58s
  95   1.35790398e+09 -1.12474469e+10  7.77e-02 4.80e-04  1.76e+04    59s
  96   1.63058131e+08 -5.02455131e+08  5.94e-04 2.67e-05  9.19e+02    60s
  97   8.43321170e+07 -4.98667717e+07  1.51e-04 3.43e-06  1.85e+02    61s
  98   8.00526863e+07 -4.45535090e+07  1.25e-04 3.27e-06  1.72e+02    62s
  99   3.51907581e+07 -1.92097043e+07  2.91e-05 1.96e-06  7.51e+01    62s
 100   2.58292256e+07  2.68891150e+06  1.48e-05 6.27e-07  3.20e+01    63s
 101   2.18441714e+07  7.69067662e+06  9.63e-06 3.08e-07  1.95e+01    63s
 102   1.91232096e+07  9.81457842e+06  6.31e-06 1.96e-07  1.29e+01    64s
 103   1.72818797e+07  1.14925174e+07  4.12e-06 1.08e-07  7.99e+00    64s
 104   1.63582748e+07  1.22725991e+07  3.06e-06 6.56e-08  5.64e+00    65s
 105   1.60474019e+07  1.26625509e+07  2.72e-06 4.45e-08  4.67e+00    65s
 106   1.52909870e+07  1.28211478e+07  1.85e-06 3.54e-08  3.41e+00    65s
 107   1.51576323e+07  1.29681127e+07  1.67e-06 2.83e-08  3.02e+00    66s
 108   1.46806256e+07  1.30777183e+07  1.16e-06 2.22e-08  2.21e+00    66s
 109   1.44671235e+07  1.31863640e+07  8.66e-07 1.86e-08  1.77e+00    67s
 110   1.42588704e+07  1.32280939e+07  6.38e-07 1.69e-08  1.42e+00    67s
 111   1.41189837e+07  1.33046036e+07  5.03e-07 1.29e-08  1.12e+00    67s
 112   1.39622029e+07  1.33842772e+07  3.37e-07 9.59e-09  7.98e-01    68s
 113   1.38786339e+07  1.34426289e+07  2.52e-07 8.21e-09  6.02e-01    68s
 114   1.38086418e+07  1.34886366e+07  1.81e-07 5.14e-09  4.42e-01    69s
 115   1.37541624e+07  1.35137745e+07  1.28e-07 1.11e-08  3.32e-01    69s
 116   1.37143709e+07  1.35488418e+07  8.92e-08 1.19e-08  2.29e-01    69s
 117   1.36901555e+07  1.35650104e+07  6.61e-08 1.12e-08  1.73e-01    70s
 118   1.36681198e+07  1.35766160e+07  4.53e-08 1.46e-08  1.26e-01    70s
 119   1.36531912e+07  1.35864143e+07  3.16e-08 7.10e-09  9.22e-02    71s
 120   1.36467570e+07  1.35944743e+07  2.57e-08 1.04e-08  7.22e-02    71s
 121   1.36438625e+07  1.36000765e+07  2.31e-08 7.10e-09  6.05e-02    72s
 122   1.36398497e+07  1.36027765e+07  1.95e-08 6.23e-09  5.12e-02    72s
 123   1.36368057e+07  1.36052644e+07  1.68e-08 1.11e-09  4.36e-02    72s
 124   1.36351188e+07  1.36082689e+07  1.53e-08 2.27e-09  3.71e-02    73s
 125   1.36304422e+07  1.36103736e+07  1.13e-08 7.28e-10  2.77e-02    73s
 126   1.36261331e+07  1.36122933e+07  7.59e-09 1.11e-09  1.91e-02    74s
 127   1.36248890e+07  1.36126335e+07  6.49e-09 4.48e-09  1.69e-02    74s
 128   1.36236603e+07  1.36129371e+07  5.39e-09 2.04e-09  1.48e-02    74s
 129   1.36230698e+07  1.36136080e+07  4.87e-09 1.54e-09  1.31e-02    75s
 130   1.36215800e+07  1.36146533e+07  3.61e-09 7.86e-09  9.56e-03    75s
 131   1.36209041e+07  1.36153550e+07  3.03e-09 6.05e-09  7.66e-03    76s
 132   1.36205091e+07  1.36155759e+07  2.69e-09 1.27e-09  6.81e-03    76s
 133   1.36202978e+07  1.36158326e+07  2.49e-09 2.97e-09  6.17e-03    76s
 134   1.36200549e+07  1.36160923e+07  2.28e-09 1.16e-09  5.47e-03    77s
 135   1.36199751e+07  1.36161299e+07  2.22e-09 6.77e-10  5.31e-03    77s
 136   1.36197864e+07  1.36162411e+07  2.06e-09 5.01e-09  4.90e-03    78s
 137   1.36193631e+07  1.36162763e+07  1.71e-09 1.03e-09  4.26e-03    78s
 138   1.36190655e+07  1.36164548e+07  1.44e-09 1.92e-09  3.61e-03    79s
 139   1.36189772e+07  1.36165458e+07  1.37e-09 4.48e-09  3.36e-03    79s
 140   1.36188188e+07  1.36167597e+07  1.23e-09 3.61e-09  2.84e-03    80s
 141   1.36186668e+07  1.36169293e+07  1.10e-09 5.24e-10  2.40e-03    80s
 142   1.36184938e+07  1.36169843e+07  9.62e-10 3.09e-09  2.08e-03    81s
 143   1.36183870e+07  1.36170468e+07  8.77e-10 2.27e-09  1.85e-03    81s
 144   1.36181399e+07  1.36171052e+07  6.66e-10 9.53e-10  1.43e-03    82s
 145   1.36180421e+07  1.36171376e+07  5.86e-10 1.28e-09  1.25e-03    82s
 146   1.36179363e+07  1.36171463e+07  5.00e-10 4.07e-10  1.09e-03    83s
 147   1.36179106e+07  1.36171685e+07  4.79e-10 9.31e-10  1.02e-03    83s
 148   1.36178942e+07  1.36171879e+07  4.66e-10 3.64e-10  9.75e-04    84s
 149   1.36178782e+07  1.36172004e+07  4.53e-10 1.92e-09  9.36e-04    85s
 150   1.36178399e+07  1.36172161e+07  4.21e-10 2.74e-09  8.61e-04    85s
 151   1.36177599e+07  1.36172243e+07  3.53e-10 1.57e-09  7.40e-04    86s
 152   1.36176863e+07  1.36172439e+07  2.94e-10 8.73e-10  6.11e-04    87s
 153   1.36176388e+07  1.36172537e+07  2.55e-10 2.47e-10  5.32e-04    87s
 154   1.36176277e+07  1.36172586e+07  2.46e-10 4.00e-10  5.10e-04    88s
 155   1.36175866e+07  1.36172669e+07  2.13e-10 2.84e-10  4.41e-04    88s
 156   1.36175662e+07  1.36172789e+07  1.97e-10 4.66e-10  3.97e-04    89s
 157   1.36175117e+07  1.36172898e+07  1.52e-10 3.86e-10  3.06e-04    90s
 158   1.36174823e+07  1.36172975e+07  1.28e-10 1.92e-09  2.55e-04    90s
 159   1.36174454e+07  1.36173044e+07  9.86e-11 5.38e-10  1.95e-04    91s
 160   1.36174212e+07  1.36173114e+07  7.92e-11 3.35e-10  1.52e-04    92s
 161   1.36174127e+07  1.36173139e+07  2.70e-10 1.07e-07  1.36e-04    92s
 162   1.36173778e+07  1.36173151e+07  5.24e-07 9.96e-08  8.65e-05    93s
 163   1.36173522e+07  1.36173194e+07  2.76e-07 1.97e-07  4.53e-05    93s
 164   1.36173520e+07  1.36173194e+07  1.03e-06 1.92e-07  4.50e-05    94s
 165   1.36173519e+07  1.36173194e+07  1.16e-06 1.91e-07  4.49e-05    95s
 166   1.36173519e+07  1.36173194e+07  1.16e-06 2.18e-10  4.49e-05    96s
 167   1.36173519e+07  1.36173194e+07  1.44e-06 1.75e-10  4.49e-05    97s
 168   1.36173467e+07  1.36173199e+07  1.99e-06 3.38e-08  3.70e-05    98s
 169   1.36173465e+07  1.36173199e+07  1.97e-06 4.07e-10  3.68e-05    98s
 170   1.36173465e+07  1.36173199e+07  1.97e-06 3.78e-10  3.67e-05    99s
 171   1.36173465e+07  1.36173199e+07  1.97e-06 7.28e-11  3.67e-05   100s
 172   1.36173465e+07  1.36173199e+07  1.97e-06 2.91e-11  3.67e-05   101s
 173   1.36173465e+07  1.36173199e+07  1.96e-06 1.89e-10  3.67e-05   102s
 174   1.36173423e+07  1.36173201e+07  1.60e-06 4.80e-10  3.06e-05   103s
 175   1.36173423e+07  1.36173201e+07  1.60e-06 2.76e-10  3.06e-05   104s
 176   1.36173422e+07  1.36173201e+07  1.60e-06 1.75e-10  3.05e-05   104s
 177   1.36173422e+07  1.36173201e+07  1.55e-06 2.26e-10  3.05e-05   105s
 178   1.36173422e+07  1.36173201e+07  1.55e-06 2.33e-10  3.05e-05   106s
 179   1.36173422e+07  1.36173201e+07  1.55e-06 3.64e-10  3.05e-05   107s
 180   1.36173420e+07  1.36173201e+07  2.17e-06 6.98e-10  3.01e-05   108s
 181   1.36173420e+07  1.36173201e+07  2.17e-06 4.51e-10  3.01e-05   109s
 182   1.36173420e+07  1.36173201e+07  2.17e-06 3.64e-11  3.01e-05   109s
 183   1.36173420e+07  1.36173201e+07  2.17e-06 3.35e-10  3.01e-05   110s
 184   1.36173420e+07  1.36173201e+07  2.16e-06 2.47e-10  3.01e-05   111s
 185   1.36173420e+07  1.36173201e+07  2.16e-06 3.64e-10  3.01e-05   112s

Barrier performed 185 iterations in 111.88 seconds
Sub-optimal termination - objective 1.36173431e+07

Crossover log...

  182521 DPushes remaining with DInf 0.0000000e+00               112s
   53410 DPushes remaining with DInf 0.0000000e+00               115s
   45222 DPushes remaining with DInf 0.0000000e+00               120s
   39170 DPushes remaining with DInf 0.0000000e+00               125s
   34186 DPushes remaining with DInf 0.0000000e+00               130s
   29558 DPushes remaining with DInf 0.0000000e+00               135s
   21014 DPushes remaining with DInf 0.0000000e+00               140s
   14962 DPushes remaining with DInf 0.0000000e+00               145s
    7336 DPushes remaining with DInf 0.0000000e+00               151s
    6261 DPushes remaining with DInf 0.0000000e+00               155s
    4825 DPushes remaining with DInf 0.0000000e+00               160s
       0 DPushes remaining with DInf 2.9228722e-09               163s

  169446 PPushes remaining with PInf 9.6730660e-03               163s
   23424 PPushes remaining with PInf 1.2693831e-01               165s
       0 PPushes remaining with PInf 5.6728182e-04               168s

  Push phase complete: Pinf 5.6728182e-04, Dinf 1.0575746e+03    168s

Iteration    Objective       Primal Inf.    Dual Inf.      Time
  351204    1.3617322e+07   0.000000e+00   1.057575e+03    168s
  351517    1.3617322e+07   0.000000e+00   0.000000e+00    169s

Solved with barrier
Solved in 351517 iterations and 169.50 seconds
Optimal objective  1.361732245e+07
